n_machines = 5;
n_resources = 10;
n_jobs = 120;
horizon = 689;
LB = 137;
n_jobs_per_resource = [7, 17, 18, 15, 15, 18, 11, 5, 6, 8];
duration = [5, 3, 6, 1, 3, 7, 8, 7, 6, 4, 3, 5, 7, 4, 3, 8, 3, 7, 7, 5, 8, 7, 8, 4, 9, 6, 4, 2, 7, 6, 9, 9, 7, 3, 2, 6, 3, 5, 9, 6, 9, 7, 3, 5, 8, 6, 7, 2, 5, 7, 7, 1, 6, 6, 4, 3, 9, 9, 7, 6, 9, 3, 5, 9, 3, 6, 2, 6, 9, 5, 3, 9, 5, 9, 2, 5, 7, 6, 6, 9, 9, 1, 6, 1, 6, 8, 9, 5, 7, 1, 6, 9, 7, 9, 7, 5, 7, 9, 4, 3, 7, 7, 8, 4, 5, 4, 1, 8, 3, 3, 7, 6, 8, 8, 7, 9, 8, 4, 1, 5]